letting maxWeight=94
letting values=[2, 3, 31, 30, 28, 19, 19, 3, 21, 19, 33, 5, 30, 1, 3, 2, 2, 23, 12, 28, 16, 21, 25, 2, 38, 25, 11, 35, 37, 21, 3, 27, 14, 37, 32, 23, 10, 16, 35, 4, 7, 11, 6, 3, 32, 21, 9, 13, 3, 21, 2, 36, 31, 30, 7, 28, 19, 29, 22, 14, 34, 1, 14, 35, 38, 9, 7, 8, 19, 14, 21, 37, 26, 35]
letting weights=[9, 20, 19, 3, 18, 15, 6, 7, 7, 8, 20, 3, 20, 11, 15, 21, 13, 15, 3, 1, 13, 10, 3, 5, 12, 12, 12, 18, 14, 19, 12, 8, 12, 15, 7, 16, 12, 18, 10, 10, 6, 12, 20, 16, 13, 7, 2, 20, 1, 22, 17, 4, 21, 7, 14, 4, 2, 6, 17, 20, 18, 21, 17, 20, 14, 6, 13, 22, 12, 20, 10, 3, 7, 2]
